DIMACS2
20 147 137 97 42 256 309 220 293 92 314 57 95 59 48 186 3 88 316 87 93
p edge 320 322
e 0 53 1.0
e 1 279 6.0
e 2 290 4.0
e 3 278 48.0
e 4 73 3.0
e 4 0 1.0
e 5 128 1.0
e 5 4 1.0
e 6 51 8.0
e 7 57 10.0
e 8 243 1.0
e 9 203 1.0
e 10 251 4.0
e 11 3 7.0
e 12 157 1.0
e 13 146 1.0
e 14 131 1.0
e 15 136 2.0
e 16 108 2.0
e 17 148 3.0
e 18 149 1.0
e 19 0 1.0
e 20 233 1.0
e 21 89 1.0
e 22 13 1.0
e 23 120 1.0
e 24 34 1.0
e 25 310 6.0
e 26 236 1.0
e 27 259 1.0
e 28 133 1.0
e 29 47 1.0
e 30 117 1.0
e 31 72 1.0
e 32 309 33.0
e 32 5 9.0
e 33 231 1.0
e 34 87 22.0
e 35 241 1.0
e 36 277 1.0
e 37 97 38.0
e 38 243 1.0
e 39 45 3.0
e 40 25 1.0
e 41 139 1.0
e 42 136 15.0
e 43 153 1.0
e 44 86 1.0
e 45 93 27.0
e 46 79 11.0
e 47 31 1.0
e 48 144 34.0
e 49 53 3.0
e 50 108 1.0
e 51 247 3.0
e 52 226 1.0
e 53 134 4.0
e 54 41 1.0
e 55 89 1.0
e 56 60 2.0
e 57 91 37.0
e 58 285 1.0
e 59 237 25.0
e 60 224 5.0
e 61 275 1.0
e 62 101 1.0
e 63 105 1.0
e 64 299 4.0
e 65 61 1.0
e 66 71 1.0
e 67 23 1.0
e 68 257 1.0
e 69 3 24.0
e 70 197 1.0
e 71 120 1.0
e 72 71 1.0
e 73 202 1.0
e 74 144 2.0
e 75 273 1.0
e 76 86 1.0
e 77 46 9.0
e 78 6 7.0
e 80 249 1.0
e 81 100 1.0
e 82 162 2.0
e 83 183 1.0
e 84 149 1.0
e 85 174 1.0
e 86 40 1.0
e 87 167 49.0
e 88 180 39.0
e 89 288 1.0
e 90 252 1.0
e 91 272 9.0
e 92 74 10.0
e 93 25 25.0
e 94 142 1.0
e 95 152 5.0
e 96 275 1.0
e 97 6 41.0
e 98 234 1.0
e 99 260 1.0
e 100 231 1.0
e 101 27 1.0
e 102 225 1.0
e 103 139 1.0
e 104 264 6.0
e 105 302 1.0
e 106 293 32.0
e 107 120 1.0
e 108 137 11.0
e 109 190 1.0
e 110 187 1.0
e 111 276 4.0
e 112 178 1.0
e 113 186 1.0
e 114 173 1.0
e 115 179 1.0
e 116 28 3.0
e 117 17 1.0
e 118 288 1.0
e 119 308 3.0
e 120 223 1.0
e 121 160 2.0
e 122 117 2.0
e 123 138 2.0
e 124 257 1.0
e 125 231 2.0
e 126 191 1.0
e 127 294 3.0
e 128 307 2.0
e 129 82 11.0
e 130 0 1.0
e 131 0 1.0
e 132 271 1.0
e 133 37 11.0
e 134 199 3.0
e 135 15 1.0
e 136 108 1.0
e 137 280 45.0
e 138 74 2.0
e 139 98 1.0
e 140 19 1.0
e 141 74 2.0
e 142 289 1.0
e 143 30 1.0
e 144 121 1.0
e 145 76 1.0
e 146 9 1.0
e 147 237 15.0
e 148 290 3.0
e 149 263 1.0
e 150 294 1.0
e 151 58 1.0
e 152 73 11.0
e 153 124 1.0
e 154 97 5.0
e 155 77 1.0
e 156 301 1.0
e 157 243 1.0
e 158 207 2.0
e 159 61 1.0
e 160 234 1.0
e 161 301 1.0
e 162 227 1.0
e 163 126 2.0
e 164 210 1.0
e 165 212 1.0
e 166 149 1.0
e 167 219 3.0
e 168 54 1.0
e 169 199 1.0
e 170 108 2.0
e 171 92 31.0
e 172 32 10.0
e 173 13 2.0
e 174 105 1.0
e 175 237 1.0
e 176 294 2.0
e 177 94 1.0
e 178 203 1.0
e 179 300 5.0
e 180 126 1.0
e 181 294 1.0
e 182 105 1.0
e 183 131 1.0
e 184 187 1.0
e 185 60 2.0
e 186 49 49.0
e 187 312 1.0
e 188 158 1.0
e 189 191 1.0
e 190 135 1.0
e 191 282 1.0
e 192 132 1.0
e 193 97 3.0
e 194 136 1.0
e 195 109 1.0
e 196 4 1.0
e 197 206 1.0
e 198 294 1.0
e 199 164 1.0
e 200 196 1.0
e 201 161 1.0
e 202 173 1.0
e 203 277 1.0
e 204 59 11.0
e 205 258 1.0
e 206 89 1.0
e 207 28 1.0
e 208 315 3.0
e 209 249 1.0
e 210 69 1.0
e 211 269 2.0
e 212 189 1.0
e 213 171 6.0
e 214 190 1.0
e 215 182 1.0
e 216 104 6.0
e 217 294 3.0
e 218 161 1.0
e 219 25 1.0
e 220 88 27.0
e 221 36 1.0
e 222 79 2.0
e 223 243 1.0
e 224 293 8.0
e 225 229 1.0
e 226 238 1.0
e 227 90 1.0
e 228 244 1.0
e 229 165 1.0
e 230 282 1.0
e 231 24 1.0
e 232 13 1.0
e 233 12 1.0
e 234 282 1.0
e 235 84 1.0
e 236 217 1.0
e 237 128 1.0
e 238 165 1.0
e 239 220 16.0
e 240 251 2.0
e 241 304 1.0
e 242 184 1.0
e 243 193 5.0
e 244 120 1.0
e 245 234 1.0
e 246 147 36.0
e 247 262 2.0
e 248 195 1.0
e 249 138 3.0
e 250 41 1.0
e 251 37 12.0
e 252 97 32.0
e 253 121 1.0
e 254 230 1.0
e 255 239 2.0
e 256 141 6.0
e 257 165 1.0
e 258 85 1.0
e 259 40 1.0
e 260 243 1.0
e 261 269 4.0
e 262 179 1.0
e 263 13 1.0
e 264 256 45.0
e 265 178 1.0
e 266 137 20.0
e 267 85 1.0
e 268 170 1.0
e 269 78 3.0
e 270 246 4.0
e 271 128 1.0
e 272 75 1.0
e 273 120 1.0
e 274 310 1.0
e 275 181 1.0
e 276 316 45.0
e 277 50 1.0
e 278 243 5.0
e 279 276 4.0
e 280 231 1.0
e 281 251 1.0
e 282 150 1.0
e 283 271 1.0
e 284 130 1.0
e 285 215 1.0
e 286 105 1.0
e 287 292 1.0
e 288 40 2.0
e 289 285 1.0
e 290 106 9.0
e 291 78 1.0
e 292 317 1.0
e 293 129 29.0
e 294 246 1.0
e 295 213 3.0
e 296 140 1.0
e 297 157 1.0
e 298 262 1.0
e 299 37 3.0
e 300 49 1.0
e 301 239 1.0
e 302 294 1.0
e 303 285 1.0
e 304 280 9.0
e 305 318 1.0
e 306 70 1.0
e 307 256 1.0
e 308 78 1.0
e 309 46 25.0
e 310 15 1.0
e 311 123 1.0
e 312 239 3.0
e 313 272 5.0
e 314 34 23.0
e 315 56 8.0
e 316 315 26.0
e 317 100 1.0
e 318 125 1.0
e 319 92 43.0
